homework6/Assignment6_solution/codes/prob3.1.lp
Minimize
  y1 + y2 + y3 + y4 + y5 + y6
Subject To
  city_1: x11 + x12 + x13 + x14 + x15 + x16 = 1
  city_2: x21 + x22 + x23 + x24 + x25 + x26 = 1
  city_3: x31 + x32 + x33 + x34 + x35 + x36 = 1
  city_4: x41 + x42 + x43 + x44 + x45 + x46 = 1
  city_5: x51 + x52 + x53 + x54 + x55 + x56 = 1
  city_6: x61 + x62 + x63 + x64 + x65 + x66 = 1
  x21 + x11 <= 1
  x22 + x12 <= 1
  x23 + x13 <= 1
  x24 + x14 <= 1
  x25 + x15 <= 1
  x26 + x16 <= 1
  x31 + x11 <= 1
  x32 + x12 <= 1
  x33 + x13 <= 1
  x34 + x14 <= 1
  x35 + x15 <= 1
  x36 + x16 <= 1
  x51 + x11 <= 1
  x52 + x12 <= 1
  x53 + x13 <= 1
  x54 + x14 <= 1
  x55 + x15 <= 1
  x56 + x16 <= 1
  x31 + x21 <= 1
  x32 + x22 <= 1
  x33 + x23 <= 1
  x34 + x24 <= 1
  x35 + x25 <= 1
  x36 + x26 <= 1
  x51 + x21 <= 1
  x52 + x22 <= 1
  x53 + x23 <= 1
  x54 + x24 <= 1
  x55 + x25 <= 1
  x56 + x26 <= 1
  x41 + x21 <= 1
  x42 + x22 <= 1
  x43 + x23 <= 1
  x44 + x24 <= 1
  x45 + x25 <= 1
  x46 + x26 <= 1
  x41 + x31 <= 1
  x42 + x32 <= 1
  x43 + x33 <= 1
  x44 + x34 <= 1
  x45 + x35 <= 1
  x46 + x36 <= 1
  x61 + x31 <= 1
  x62 + x32 <= 1
  x63 + x33 <= 1
  x64 + x34 <= 1
  x65 + x35 <= 1
  x66 + x36 <= 1
  x61 + x41 <= 1
  x62 + x42 <= 1
  x63 + x43 <= 1
  x64 + x44 <= 1
  x65 + x45 <= 1
  x66 + x46 <= 1
  x61 + x51 <= 1
  x62 + x52 <= 1
  x63 + x53 <= 1
  x64 + x54 <= 1
  x65 + x55 <= 1
  x66 + x56 <= 1
  x11 + x21 + x31 + x41 + x51 + x61 - 10 y1 <= 0
  x12 + x22 + x32 + x42 + x52 + x62 - 10 y2 <= 0
  x13 + x23 + x33 + x43 + x53 + x63 - 10 y3 <= 0
  x14 + x24 + x34 + x44 + x54 + x64 - 10 y4 <= 0
  x15 + x25 + x35 + x45 + x55 + x65 - 10 y5 <= 0
  x16 + x26 + x36 + x46 + x56 + x66 - 10 y6 <= 0
Binary
  y1 y2 y3 y4 y5 y6 x11 x12 x13 x14 x15 x16 x21 x22 x23 x24 x25 x26
  x31 x32 x33 x34 x35 x36 x41 x42 x43 x44 x45 x46 
  x51 x52 x53 x54 x55 x56 x61 x62 x63 x64 x65 x66
