homework6/Assignment6_solution/codes/prob3.1.sol
# Objective value = 3
y1 1
y2 0
y3 0
y4 0
y5 1
y6 1
x11 0
x12 0
x13 0
x14 0
x15 1
x16 0
x21 0
x22 0
x23 0
x24 0
x25 0
x26 1
x31 1
x32 0
x33 0
x34 0
x35 0
x36 0
x41 0
x42 0
x43 0
x44 0
x45 1
x46 0
x51 1
x52 0
x53 0
x54 0
x55 0
x56 0
x61 0
x62 0
x63 0
x64 0
x65 0
x66 1
